\* Problem: IPL_linearized_N8q30 *\

Minimize
 obj: + 0.00376893308212137 y(1,1) - 2.67279179670345e-05 y(1,2)
 + 0.000121066478895046 y(1,3) - 1.49937886295932e-05 y(1,4)
 + 0.000125312105322235 y(1,5) + 0.000509342675276083 y(1,6)
 - 0.00177212268113621 y(1,7) + 0.000547054161792537 y(1,8)
 - 2.67279179670345e-05 y(2,1) + 0.00521955608870998 y(2,2)
 - 9.48442583826284e-05 y(2,3) + 0.000600755525272447 y(2,4)
 + 0.000106750268560357 y(2,5) + 0.000247982946799612 y(2,6)
 + 3.36161727420097e-05 y(2,7) + 9.80003371030997e-06 y(2,8)
 + 0.000121066478895046 y(3,1) - 9.48442583826284e-05 y(3,2)
 + 0.00406629372671268 y(3,3) - 3.74276220253289e-05 y(3,4)
 + 0.000620683865877134 y(3,5) + 0.000815207434293813 y(3,6)
 + 0.000182397260508915 y(3,7) + 0.000403214841894153 y(3,8)
 - 1.49937886295932e-05 y(4,1) + 0.000600755525272447 y(4,2)
 - 3.74276220253289e-05 y(4,3) + 0.00899731027615318 y(4,4)
 + 0.000310144640823389 y(4,5) + 0.00123986464555699 y(4,6)
 - 0.000704716517953464 y(4,7) + 1.19627469430876e-05 y(4,8)
 + 0.000125312105322235 y(5,1) + 0.000106750268560357 y(5,2)
 + 0.000620683865877134 y(5,3) + 0.000310144640823389 y(5,4)
 + 0.00289147665972412 y(5,5) + 0.00019876773430506 y(5,6)
 - 6.8437810449575e-05 y(5,7) + 0.000220471724899683 y(5,8)
 + 0.000509342675276083 y(6,1) + 0.000247982946799612 y(6,2)
 + 0.000815207434293813 y(6,3) + 0.00123986464555699 y(6,4)
 + 0.00019876773430506 y(6,5) + 0.0144194630351553 y(6,6)
 - 7.5370962508322e-06 y(6,7) - 0.00157862569024883 y(6,8)
 - 0.00177212268113621 y(7,1) + 3.36161727420097e-05 y(7,2)
 + 0.000182397260508915 y(7,3) - 0.000704716517953464 y(7,4)
 - 6.8437810449575e-05 y(7,5) - 7.5370962508322e-06 y(7,6)
 + 0.0141099668810133 y(7,7) - 6.9937755788477e-05 y(7,8)
 + 0.000547054161792537 y(8,1) + 9.80003371030997e-06 y(8,2)
 + 0.000403214841894153 y(8,3) + 1.19627469430876e-05 y(8,4)
 + 0.000220471724899683 y(8,5) - 0.00157862569024883 y(8,6)
 - 6.9937755788477e-05 y(8,7) + 0.020772161420537 y(8,8)
 - 0.00281025272830319 x(1) - 0.00475409199050309 x(2)
 - 0.00317222649193316 x(3) + 0.00794422148720399 x(4)
 - 0.00193760151939285 x(5) - 0.0092272863841885 x(6)
 + 0.000443286258177594 x(7) - 0.0109727470097396 x(8)

Subject To
 card0: + x(1) + x(2) + x(3) + x(4) + x(5) + x(6) + x(7) + x(8) = 4
 card1(1,1): + y(1,1) - x(1) <= -0
 card1(1,2): + y(1,2) - x(1) <= -0
 card1(1,3): + y(1,3) - x(1) <= -0
 card1(1,4): + y(1,4) - x(1) <= -0
 card1(1,5): + y(1,5) - x(1) <= -0
 card1(1,6): + y(1,6) - x(1) <= -0
 card1(1,7): + y(1,7) - x(1) <= -0
 card1(1,8): + y(1,8) - x(1) <= -0
 card1(2,1): + y(2,1) - x(2) <= -0
 card1(2,2): + y(2,2) - x(2) <= -0
 card1(2,3): + y(2,3) - x(2) <= -0
 card1(2,4): + y(2,4) - x(2) <= -0
 card1(2,5): + y(2,5) - x(2) <= -0
 card1(2,6): + y(2,6) - x(2) <= -0
 card1(2,7): + y(2,7) - x(2) <= -0
 card1(2,8): + y(2,8) - x(2) <= -0
 card1(3,1): + y(3,1) - x(3) <= -0
 card1(3,2): + y(3,2) - x(3) <= -0
 card1(3,3): + y(3,3) - x(3) <= -0
 card1(3,4): + y(3,4) - x(3) <= -0
 card1(3,5): + y(3,5) - x(3) <= -0
 card1(3,6): + y(3,6) - x(3) <= -0
 card1(3,7): + y(3,7) - x(3) <= -0
 card1(3,8): + y(3,8) - x(3) <= -0
 card1(4,1): + y(4,1) - x(4) <= -0
 card1(4,2): + y(4,2) - x(4) <= -0
 card1(4,3): + y(4,3) - x(4) <= -0
 card1(4,4): + y(4,4) - x(4) <= -0
 card1(4,5): + y(4,5) - x(4) <= -0
 card1(4,6): + y(4,6) - x(4) <= -0
 card1(4,7): + y(4,7) - x(4) <= -0
 card1(4,8): + y(4,8) - x(4) <= -0
 card1(5,1): + y(5,1) - x(5) <= -0
 card1(5,2): + y(5,2) - x(5) <= -0
 card1(5,3): + y(5,3) - x(5) <= -0
 card1(5,4): + y(5,4) - x(5) <= -0
 card1(5,5): + y(5,5) - x(5) <= -0
 card1(5,6): + y(5,6) - x(5) <= -0
 card1(5,7): + y(5,7) - x(5) <= -0
 card1(5,8): + y(5,8) - x(5) <= -0
 card1(6,1): + y(6,1) - x(6) <= -0
 card1(6,2): + y(6,2) - x(6) <= -0
 card1(6,3): + y(6,3) - x(6) <= -0
 card1(6,4): + y(6,4) - x(6) <= -0
 card1(6,5): + y(6,5) - x(6) <= -0
 card1(6,6): + y(6,6) - x(6) <= -0
 card1(6,7): + y(6,7) - x(6) <= -0
 card1(6,8): + y(6,8) - x(6) <= -0
 card1(7,1): + y(7,1) - x(7) <= -0
 card1(7,2): + y(7,2) - x(7) <= -0
 card1(7,3): + y(7,3) - x(7) <= -0
 card1(7,4): + y(7,4) - x(7) <= -0
 card1(7,5): + y(7,5) - x(7) <= -0
 card1(7,6): + y(7,6) - x(7) <= -0
 card1(7,7): + y(7,7) - x(7) <= -0
 card1(7,8): + y(7,8) - x(7) <= -0
 card1(8,1): + y(8,1) - x(8) <= -0
 card1(8,2): + y(8,2) - x(8) <= -0
 card1(8,3): + y(8,3) - x(8) <= -0
 card1(8,4): + y(8,4) - x(8) <= -0
 card1(8,5): + y(8,5) - x(8) <= -0
 card1(8,6): + y(8,6) - x(8) <= -0
 card1(8,7): + y(8,7) - x(8) <= -0
 card1(8,8): + y(8,8) - x(8) <= -0
 card2(1,1): + y(1,1) - x(1) <= -0
 card2(1,2): + y(1,2) - x(2) <= -0
 card2(1,3): + y(1,3) - x(3) <= -0
 card2(1,4): + y(1,4) - x(4) <= -0
 card2(1,5): + y(1,5) - x(5) <= -0
 card2(1,6): + y(1,6) - x(6) <= -0
 card2(1,7): + y(1,7) - x(7) <= -0
 card2(1,8): + y(1,8) - x(8) <= -0
 card2(2,1): + y(2,1) - x(1) <= -0
 card2(2,2): + y(2,2) - x(2) <= -0
 card2(2,3): + y(2,3) - x(3) <= -0
 card2(2,4): + y(2,4) - x(4) <= -0
 card2(2,5): + y(2,5) - x(5) <= -0
 card2(2,6): + y(2,6) - x(6) <= -0
 card2(2,7): + y(2,7) - x(7) <= -0
 card2(2,8): + y(2,8) - x(8) <= -0
 card2(3,1): + y(3,1) - x(1) <= -0
 card2(3,2): + y(3,2) - x(2) <= -0
 card2(3,3): + y(3,3) - x(3) <= -0
 card2(3,4): + y(3,4) - x(4) <= -0
 card2(3,5): + y(3,5) - x(5) <= -0
 card2(3,6): + y(3,6) - x(6) <= -0
 card2(3,7): + y(3,7) - x(7) <= -0
 card2(3,8): + y(3,8) - x(8) <= -0
 card2(4,1): + y(4,1) - x(1) <= -0
 card2(4,2): + y(4,2) - x(2) <= -0
 card2(4,3): + y(4,3) - x(3) <= -0
 card2(4,4): + y(4,4) - x(4) <= -0
 card2(4,5): + y(4,5) - x(5) <= -0
 card2(4,6): + y(4,6) - x(6) <= -0
 card2(4,7): + y(4,7) - x(7) <= -0
 card2(4,8): + y(4,8) - x(8) <= -0
 card2(5,1): + y(5,1) - x(1) <= -0
 card2(5,2): + y(5,2) - x(2) <= -0
 card2(5,3): + y(5,3) - x(3) <= -0
 card2(5,4): + y(5,4) - x(4) <= -0
 card2(5,5): + y(5,5) - x(5) <= -0
 card2(5,6): + y(5,6) - x(6) <= -0
 card2(5,7): + y(5,7) - x(7) <= -0
 card2(5,8): + y(5,8) - x(8) <= -0
 card2(6,1): + y(6,1) - x(1) <= -0
 card2(6,2): + y(6,2) - x(2) <= -0
 card2(6,3): + y(6,3) - x(3) <= -0
 card2(6,4): + y(6,4) - x(4) <= -0
 card2(6,5): + y(6,5) - x(5) <= -0
 card2(6,6): + y(6,6) - x(6) <= -0
 card2(6,7): + y(6,7) - x(7) <= -0
 card2(6,8): + y(6,8) - x(8) <= -0
 card2(7,1): + y(7,1) - x(1) <= -0
 card2(7,2): + y(7,2) - x(2) <= -0
 card2(7,3): + y(7,3) - x(3) <= -0
 card2(7,4): + y(7,4) - x(4) <= -0
 card2(7,5): + y(7,5) - x(5) <= -0
 card2(7,6): + y(7,6) - x(6) <= -0
 card2(7,7): + y(7,7) - x(7) <= -0
 card2(7,8): + y(7,8) - x(8) <= -0
 card2(8,1): + y(8,1) - x(1) <= -0
 card2(8,2): + y(8,2) - x(2) <= -0
 card2(8,3): + y(8,3) - x(3) <= -0
 card2(8,4): + y(8,4) - x(4) <= -0
 card2(8,5): + y(8,5) - x(5) <= -0
 card2(8,6): + y(8,6) - x(6) <= -0
 card2(8,7): + y(8,7) - x(7) <= -0
 card2(8,8): + y(8,8) - x(8) <= -0
 card3(1,1): + y(1,1) - 2 x(1) >= -1
 card3(1,2): + y(1,2) - x(1) - x(2) >= -1
 card3(1,3): + y(1,3) - x(1) - x(3) >= -1
 card3(1,4): + y(1,4) - x(1) - x(4) >= -1
 card3(1,5): + y(1,5) - x(1) - x(5) >= -1
 card3(1,6): + y(1,6) - x(1) - x(6) >= -1
 card3(1,7): + y(1,7) - x(1) - x(7) >= -1
 card3(1,8): + y(1,8) - x(1) - x(8) >= -1
 card3(2,1): + y(2,1) - x(1) - x(2) >= -1
 card3(2,2): + y(2,2) - 2 x(2) >= -1
 card3(2,3): + y(2,3) - x(2) - x(3) >= -1
 card3(2,4): + y(2,4) - x(2) - x(4) >= -1
 card3(2,5): + y(2,5) - x(2) - x(5) >= -1
 card3(2,6): + y(2,6) - x(2) - x(6) >= -1
 card3(2,7): + y(2,7) - x(2) - x(7) >= -1
 card3(2,8): + y(2,8) - x(2) - x(8) >= -1
 card3(3,1): + y(3,1) - x(1) - x(3) >= -1
 card3(3,2): + y(3,2) - x(2) - x(3) >= -1
 card3(3,3): + y(3,3) - 2 x(3) >= -1
 card3(3,4): + y(3,4) - x(3) - x(4) >= -1
 card3(3,5): + y(3,5) - x(3) - x(5) >= -1
 card3(3,6): + y(3,6) - x(3) - x(6) >= -1
 card3(3,7): + y(3,7) - x(3) - x(7) >= -1
 card3(3,8): + y(3,8) - x(3) - x(8) >= -1
 card3(4,1): + y(4,1) - x(1) - x(4) >= -1
 card3(4,2): + y(4,2) - x(2) - x(4) >= -1
 card3(4,3): + y(4,3) - x(3) - x(4) >= -1
 card3(4,4): + y(4,4) - 2 x(4) >= -1
 card3(4,5): + y(4,5) - x(4) - x(5) >= -1
 card3(4,6): + y(4,6) - x(4) - x(6) >= -1
 card3(4,7): + y(4,7) - x(4) - x(7) >= -1
 card3(4,8): + y(4,8) - x(4) - x(8) >= -1
 card3(5,1): + y(5,1) - x(1) - x(5) >= -1
 card3(5,2): + y(5,2) - x(2) - x(5) >= -1
 card3(5,3): + y(5,3) - x(3) - x(5) >= -1
 card3(5,4): + y(5,4) - x(4) - x(5) >= -1
 card3(5,5): + y(5,5) - 2 x(5) >= -1
 card3(5,6): + y(5,6) - x(5) - x(6) >= -1
 card3(5,7): + y(5,7) - x(5) - x(7) >= -1
 card3(5,8): + y(5,8) - x(5) - x(8) >= -1
 card3(6,1): + y(6,1) - x(1) - x(6) >= -1
 card3(6,2): + y(6,2) - x(2) - x(6) >= -1
 card3(6,3): + y(6,3) - x(3) - x(6) >= -1
 card3(6,4): + y(6,4) - x(4) - x(6) >= -1
 card3(6,5): + y(6,5) - x(5) - x(6) >= -1
 card3(6,6): + y(6,6) - 2 x(6) >= -1
 card3(6,7): + y(6,7) - x(6) - x(7) >= -1
 card3(6,8): + y(6,8) - x(6) - x(8) >= -1
 card3(7,1): + y(7,1) - x(1) - x(7) >= -1
 card3(7,2): + y(7,2) - x(2) - x(7) >= -1
 card3(7,3): + y(7,3) - x(3) - x(7) >= -1
 card3(7,4): + y(7,4) - x(4) - x(7) >= -1
 card3(7,5): + y(7,5) - x(5) - x(7) >= -1
 card3(7,6): + y(7,6) - x(6) - x(7) >= -1
 card3(7,7): + y(7,7) - 2 x(7) >= -1
 card3(7,8): + y(7,8) - x(7) - x(8) >= -1
 card3(8,1): + y(8,1) - x(1) - x(8) >= -1
 card3(8,2): + y(8,2) - x(2) - x(8) >= -1
 card3(8,3): + y(8,3) - x(3) - x(8) >= -1
 card3(8,4): + y(8,4) - x(4) - x(8) >= -1
 card3(8,5): + y(8,5) - x(5) - x(8) >= -1
 card3(8,6): + y(8,6) - x(6) - x(8) >= -1
 card3(8,7): + y(8,7) - x(7) - x(8) >= -1
 card3(8,8): + y(8,8) - 2 x(8) >= -1

Bounds
 0 <= y(1,1) <= 1
 0 <= y(1,2) <= 1
 0 <= y(1,3) <= 1
 0 <= y(1,4) <= 1
 0 <= y(1,5) <= 1
 0 <= y(1,6) <= 1
 0 <= y(1,7) <= 1
 0 <= y(1,8) <= 1
 0 <= y(2,1) <= 1
 0 <= y(2,2) <= 1
 0 <= y(2,3) <= 1
 0 <= y(2,4) <= 1
 0 <= y(2,5) <= 1
 0 <= y(2,6) <= 1
 0 <= y(2,7) <= 1
 0 <= y(2,8) <= 1
 0 <= y(3,1) <= 1
 0 <= y(3,2) <= 1
 0 <= y(3,3) <= 1
 0 <= y(3,4) <= 1
 0 <= y(3,5) <= 1
 0 <= y(3,6) <= 1
 0 <= y(3,7) <= 1
 0 <= y(3,8) <= 1
 0 <= y(4,1) <= 1
 0 <= y(4,2) <= 1
 0 <= y(4,3) <= 1
 0 <= y(4,4) <= 1
 0 <= y(4,5) <= 1
 0 <= y(4,6) <= 1
 0 <= y(4,7) <= 1
 0 <= y(4,8) <= 1
 0 <= y(5,1) <= 1
 0 <= y(5,2) <= 1
 0 <= y(5,3) <= 1
 0 <= y(5,4) <= 1
 0 <= y(5,5) <= 1
 0 <= y(5,6) <= 1
 0 <= y(5,7) <= 1
 0 <= y(5,8) <= 1
 0 <= y(6,1) <= 1
 0 <= y(6,2) <= 1
 0 <= y(6,3) <= 1
 0 <= y(6,4) <= 1
 0 <= y(6,5) <= 1
 0 <= y(6,6) <= 1
 0 <= y(6,7) <= 1
 0 <= y(6,8) <= 1
 0 <= y(7,1) <= 1
 0 <= y(7,2) <= 1
 0 <= y(7,3) <= 1
 0 <= y(7,4) <= 1
 0 <= y(7,5) <= 1
 0 <= y(7,6) <= 1
 0 <= y(7,7) <= 1
 0 <= y(7,8) <= 1
 0 <= y(8,1) <= 1
 0 <= y(8,2) <= 1
 0 <= y(8,3) <= 1
 0 <= y(8,4) <= 1
 0 <= y(8,5) <= 1
 0 <= y(8,6) <= 1
 0 <= y(8,7) <= 1
 0 <= y(8,8) <= 1
 0 <= x(1) <= 1
 0 <= x(2) <= 1
 0 <= x(3) <= 1
 0 <= x(4) <= 1
 0 <= x(5) <= 1
 0 <= x(6) <= 1
 0 <= x(7) <= 1
 0 <= x(8) <= 1

Generals
 y(1,1)
 y(1,2)
 y(1,3)
 y(1,4)
 y(1,5)
 y(1,6)
 y(1,7)
 y(1,8)
 y(2,1)
 y(2,2)
 y(2,3)
 y(2,4)
 y(2,5)
 y(2,6)
 y(2,7)
 y(2,8)
 y(3,1)
 y(3,2)
 y(3,3)
 y(3,4)
 y(3,5)
 y(3,6)
 y(3,7)
 y(3,8)
 y(4,1)
 y(4,2)
 y(4,3)
 y(4,4)
 y(4,5)
 y(4,6)
 y(4,7)
 y(4,8)
 y(5,1)
 y(5,2)
 y(5,3)
 y(5,4)
 y(5,5)
 y(5,6)
 y(5,7)
 y(5,8)
 y(6,1)
 y(6,2)
 y(6,3)
 y(6,4)
 y(6,5)
 y(6,6)
 y(6,7)
 y(6,8)
 y(7,1)
 y(7,2)
 y(7,3)
 y(7,4)
 y(7,5)
 y(7,6)
 y(7,7)
 y(7,8)
 y(8,1)
 y(8,2)
 y(8,3)
 y(8,4)
 y(8,5)
 y(8,6)
 y(8,7)
 y(8,8)
 x(1)
 x(2)
 x(3)
 x(4)
 x(5)
 x(6)
 x(7)
 x(8)

End
